17 200
0 0 200 200 0 0 1676 0 0 0
1 176 243 244 30 61 126 90 0 533
2 446 275 287 10 175 241 90 0 67
3 195 280 290 20 271 335 90 0 733
4 259 281 291 40 364 425 0 0 832
5 552 291 308 30 663 728 90 0 406
6 139 293 310 30 0 1442 90 0 275
7 623 282 282 10 0 1471 0 0 846
8 716 251 241 20 0 1521 90 0 587
9 533 280 288 -30 457 518 90 176 0
10 67 280 282 -10 0 1472 90 446 0
11 733 280 287 -20 545 612 90 195 0
12 832 281 291 -40 364 425 90 259 0
13 406 287 307 -30 851 910 90 552 0
14 275 286 308 -30 942 1001 90 139 0
15 846 282 282 -10 0 1471 90 623 0
16 587 254 240 -20 0 1519 90 716 0

